
Gurobi 12.0.1 (win64, C++) logging started Thu Apr 17 16:43:28 2025

Set parameter Username
Set parameter LicenseID to value 2618655
Academic license - for non-commercial use only - expires 2026-02-05
Set parameter Threads to value 8
Set parameter LazyConstraints to value 1
Set parameter PreCrush to value 1
Set parameter Seed to value 0
Set parameter Cuts to value -1
Set parameter TimeLimit to value 28800
Set parameter NumericFocus to value 0
Set parameter SolutionLimit to value 10000
Gurobi Optimizer version 12.0.1 build v12.0.1rc0 (win64 - Windows Server 2022.0 (20348.2))

CPU model: AMD EPYC 7513 32-Core Processor, instruction set [SSE2|AVX|AVX2]
Thread count: 18 physical cores, 18 logical processors, using up to 8 threads

Non-default parameters:
SolutionLimit  10000
TimeLimit  28800
PreCrush  1
Threads  8
LazyConstraints  1

Optimize a model with 254 rows, 484 columns and 1386 nonzeros
Model fingerprint: 0x4bce8bdd
Variable types: 0 continuous, 484 integer (484 binary)
Coefficient statistics:
  Matrix range     [1e+00, 1e+00]
  Objective range  [3e+00, 8e+01]
  Bounds range     [1e+00, 1e+00]
  RHS range        [1e+00, 6e+00]

User MIP start produced solution with objective 617.697 (0.02s)
Loaded user MIP start with objective 617.697

Presolve removed 5 rows and 30 columns
Presolve time: 0.00s
Presolved: 249 rows, 454 columns, 1299 nonzeros
Variable types: 0 continuous, 454 integer (454 binary)

Root relaxation: objective 3.576230e+02, 79 iterations, 0.00 seconds (0.00 work units)

    Nodes    |    Current Node    |     Objective Bounds      |     Work
 Expl Unexpl |  Obj  Depth IntInf | Incumbent    BestBd   Gap | It/Node Time

     0     0  357.62304    0   14  617.69669  357.62304  42.1%     -    0s
     0     0  388.53078    0    -  617.69669  388.53078  37.1%     -    0s
     0     0  413.91655    0   27  617.69669  413.91655  33.0%     -    0s
     0     0  424.33003    0   14  617.69669  424.33003  31.3%     -    0s
     0     0  460.52794    0   20  617.69669  460.52794  25.4%     -    0s
     0     0  466.65419    0   29  617.69669  466.65419  24.5%     -    0s
     0     0  470.93885    0   41  617.69669  470.93885  23.8%     -    0s
     0     0  471.73802    0   42  617.69669  471.73802  23.6%     -    0s
     0     0  471.73802    0   30  617.69669  471.73802  23.6%     -    0s
     0     2  480.30077    0   14  617.69669  480.30077  22.2%     -    0s
*   49    50               7     495.8477702  487.53858  1.68%  48.1    1s

Cutting planes:
  MIR: 1
  Lazy constraints: 1633

Explored 206 nodes (7166 simplex iterations) in 3.33 seconds (0.68 work units)
Thread count was 8 (of 18 available processors)

Solution count 2: 495.848 617.697 

Optimal solution found (tolerance 1.00e-04)
Best objective 4.958477702001e+02, best bound 4.958477702001e+02, gap 0.0000%

User-callback calls 789, time in user-callback 2.62 sec
### START EXACT APPROACH ###
ProblemVariant: 4
### START PREPROCESSING ###
## Start infeasible path procedure ## 
Deleted arcs: 8
Infeasible tail paths: 0
Infeasible 2-node combinations: 4
## Start extended infeasible path procedure ##
Deleted arcs: 8
Infeasible tail paths: 0
Infeasible 2-node combinations: 4
## Start start solution procedure ##
Start solution with 6 Vehicles and total costs 617.697 in 0.267041 s.
### END PREPROCESSING ###
Route 0 0-4-3-1-2-0 : weight util 1.000000 | volume util 0.312000 | feasible with packing heuristic | feasible with CP model
Route 1 0-8-6-5-7-9-0 : weight util 0.975000 | volume util 0.618978 | infeasible with packing heuristic | feasible with CP model
Route 2 0-11-10-12-15-0 : weight util 1.000000 | volume util 0.455978 | infeasible with packing heuristic | feasible with CP model
Route 3 0-14-17-20-18-0 : weight util 1.000000 | volume util 0.498622 | feasible with packing heuristic | feasible with CP model
Route 4 0-16-13-0 : weight util 0.850000 | volume util 0.151933 | feasible with packing heuristic | feasible with CP model
Route 5 0-21-19-0 : weight util 0.800000 | volume util 0.196089 | feasible with packing heuristic | feasible with CP model
